words_hard_train/6448.qaiger
aag 106 16 0 1 90
2
4
12
18
24
26
46
48
66
68
86
88
104
158
172
182
212
6 3 4
8 2 5
10 7 9
14 10 12
16 15 9
20 10 18
22 16 21
28 25 26
30 24 27
32 29 31
34 22 33
36 23 32
38 35 37
40 14 19
42 39 40
44 37 31
50 47 48
52 46 49
54 51 53
56 44 55
58 45 54
60 57 59
62 42 61
64 59 53
70 67 68
72 66 69
74 71 73
76 64 75
78 65 74
80 77 79
82 62 81
84 79 73
90 87 88
92 86 89
94 91 93
96 84 95
98 85 94
100 97 99
102 82 101
106 102 105
108 43 60
110 109 63
112 38 41
114 113 43
116 11 19
118 117 21
120 13 4
122 19 27
124 120 123
126 18 26
128 125 127
130 128 49
132 119 131
134 129 48
136 133 135
138 136 69
140 114 139
142 137 68
144 141 143
146 111 144
148 110 145
150 149 89
152 147 151
154 63 80
156 155 83
160 156 158
162 153 161
164 157 159
166 163 165
168 83 100
170 169 103
174 171 173
176 166 175
178 170 172
180 177 179
184 182 158
186 183 159
188 185 187
190 99 93
192 189 191
194 188 190
196 193 195
198 181 196
200 106 198
202 107 197
204 202 180
206 201 205
208 103 104
210 208 199
212 206 211
i0 1 x1[2]
i1 2 y1[0]
i2 1 x1[0]
i3 1 x1[1]
i4 1 x1[3]
i5 2 y1[1]
i6 1 x1[4]
i7 2 y1[2]
i8 1 x1[5]
i9 2 y1[3]
i10 1 x1[6]
i11 2 y1[4]
i12 2 y1[7]
i13 2 y1[5]
i14 2 y1[6]
i15 1 x1[7]
o0 bv[0]
c
simplified
  >=
    2 y1
    subtract
      1 x1
      xor
        1
        << 2
          2 y1
