words_hard_train/6448.qaiger.qdimacs
p cnf 106 271
a 1 33 6 9 43 12 23 91 0
e 2 3 4 5 7 8 10 11 13 14 15 16 17 18 19 20 21 22 24 25 26 27 28 29 30 31 32 34 35 36 37 38 39 40 41 42 44 45 46 47 48 49 50 51 52 53 54 55 56 57 58 59 60 61 62 63 64 65 66 67 68 69 70 71 72 73 74 75 76 77 78 79 80 81 82 83 84 85 86 87 88 89 90 92 93 94 95 96 97 98 99 100 101 102 103 104 105 106 0
1 -2 3 0
-1 -3 0
2 -3 0
-1 2 4 0
1 -4 0
-2 -4 0
3 4 5 0
-3 -5 0
-4 -5 0
-5 -6 7 0
5 -7 0
6 -7 0
7 4 8 0
-7 -8 0
-4 -8 0
-5 -9 10 0
5 -10 0
9 -10 0
-8 10 11 0
8 -11 0
-10 -11 0
12 -13 14 0
-12 -14 0
13 -14 0
-12 13 15 0
12 -15 0
-13 -15 0
14 15 16 0
-14 -16 0
-15 -16 0
-11 16 17 0
11 -17 0
-16 -17 0
11 -16 18 0
-11 -18 0
16 -18 0
17 18 19 0
-17 -19 0
-18 -19 0
-7 9 20 0
7 -20 0
-9 -20 0
19 -20 21 0
-19 -21 0
20 -21 0
18 15 22 0
-18 -22 0
-15 -22 0
23 -24 25 0
-23 -25 0
24 -25 0
-23 24 26 0
23 -26 0
-24 -26 0
25 26 27 0
-25 -27 0
-26 -27 0
-22 27 28 0
22 -28 0
-27 -28 0
22 -27 29 0
-22 -29 0
27 -29 0
28 29 30 0
-28 -30 0
-29 -30 0
-21 30 31 0
21 -31 0
-30 -31 0
29 26 32 0
-29 -32 0
-26 -32 0
33 -34 35 0
-33 -35 0
34 -35 0
-33 34 36 0
33 -36 0
-34 -36 0
35 36 37 0
-35 -37 0
-36 -37 0
-32 37 38 0
32 -38 0
-37 -38 0
32 -37 39 0
-32 -39 0
37 -39 0
38 39 40 0
-38 -40 0
-39 -40 0
-31 40 41 0
31 -41 0
-40 -41 0
39 36 42 0
-39 -42 0
-36 -42 0
43 -44 45 0
-43 -45 0
44 -45 0
-43 44 46 0
43 -46 0
-44 -46 0
45 46 47 0
-45 -47 0
-46 -47 0
-42 47 48 0
42 -48 0
-47 -48 0
42 -47 49 0
-42 -49 0
47 -49 0
48 49 50 0
-48 -50 0
-49 -50 0
-41 50 51 0
41 -51 0
-50 -51 0
-51 52 53 0
51 -53 0
-52 -53 0
21 -30 54 0
-21 -54 0
30 -54 0
54 31 55 0
-54 -55 0
-31 -55 0
-19 20 56 0
19 -56 0
-20 -56 0
56 21 57 0
-56 -57 0
-21 -57 0
5 9 58 0
-5 -58 0
-9 -58 0
58 10 59 0
-58 -59 0
-10 -59 0
6 -2 60 0
-6 -60 0
2 -60 0
9 13 61 0
-9 -61 0
-13 -61 0
-60 61 62 0
60 -62 0
-61 -62 0
-9 -13 63 0
9 -63 0
13 -63 0
62 63 64 0
-62 -64 0
-63 -64 0
-64 24 65 0
64 -65 0
-24 -65 0
59 65 66 0
-59 -66 0
-65 -66 0
64 -24 67 0
-64 -67 0
24 -67 0
66 67 68 0
-66 -68 0
-67 -68 0
-68 34 69 0
68 -69 0
-34 -69 0
-57 69 70 0
57 -70 0
-69 -70 0
68 -34 71 0
-68 -71 0
34 -71 0
70 71 72 0
-70 -72 0
-71 -72 0
55 -72 73 0
-55 -73 0
72 -73 0
-55 72 74 0
55 -74 0
-72 -74 0
74 44 75 0
-74 -75 0
-44 -75 0
73 75 76 0
-73 -76 0
-75 -76 0
31 -40 77 0
-31 -77 0
40 -77 0
77 41 78 0
-77 -78 0
-41 -78 0
-78 -79 80 0
78 -80 0
79 -80 0
76 80 81 0
-76 -81 0
-80 -81 0
78 79 82 0
-78 -82 0
-79 -82 0
81 82 83 0
-81 -83 0
-82 -83 0
41 -50 84 0
-41 -84 0
50 -84 0
84 51 85 0
-84 -85 0
-51 -85 0
85 86 87 0
-85 -87 0
-86 -87 0
-83 87 88 0
83 -88 0
-87 -88 0
-85 -86 89 0
85 -89 0
86 -89 0
88 89 90 0
-88 -90 0
-89 -90 0
-91 -79 92 0
91 -92 0
79 -92 0
91 79 93 0
-91 -93 0
-79 -93 0
92 93 94 0
-92 -94 0
-93 -94 0
49 46 95 0
-49 -95 0
-46 -95 0
94 95 96 0
-94 -96 0
-95 -96 0
-94 -95 97 0
94 -97 0
95 -97 0
96 97 98 0
-96 -98 0
-97 -98 0
90 -98 99 0
-90 -99 0
98 -99 0
-53 -99 100 0
53 -100 0
99 -100 0
53 98 101 0
-53 -101 0
-98 -101 0
-101 -90 102 0
101 -102 0
90 -102 0
100 102 103 0
-100 -103 0
-102 -103 0
51 -52 104 0
-51 -104 0
52 -104 0
-104 99 105 0
104 -105 0
-99 -105 0
-103 105 106 0
103 -106 0
-105 -106 0
106 0
